5 6 87
4 3 1 2 1 3 2 3 3 26 47 48 62 62 78 78 86 
4 4 1 4 2 2 2 2 3 8 28 28 49 66 77 77 87 
5 5 1 1 1 1 2 1 3 5 4 10 24 38 47 47 56 56 64 74 84 
4 5 2 5 3 4 3 1 4 44 57 57 68 68 79 80 86 
8 5 1 3 1 3 1 2 1 2 1 4 3 4 3 5 4 0 10 10 22 22 26 26 44 44 48 48 52 52 58 68 74 
8 4 1 1 1 1 1 5 2 2 2 2 2 1 4 1 4 0 8 8 28 28 38 38 44 48 62 62 66 66 74 74 80 
